c User generated cnf file
p cnf 9 23
3 2 -7 0 
1 -2 2 0 
7 -6 5 0 
6 5 -5 0 
6 7 -2 0 
4 -4 1 0 
6 -7 9 0 
5 -1 1 0 
6 2 -2 0 
3 -3 5 0 
7 -2 6 0 
1 -6 2 0 
1 4 -3 0 
8 3 -1 0 
4 8 -2 0 
3 2 -6 0 
5 -9 2 0 
3 -8 8 0 
6 -5 7 0 
4 -2 1 0 
4 5 -5 0 
2 -3 5 0 
7 2 -7 0 
